<number of tasks>
50

<cycle time>
1000

<order strength>
0.601


<task times>
1 104
2 177
3 229
4 215
5 340
6 462
7 50
8 377
9 484
10 152
11 504
12 152
13 194
14 193
15 319
16 185
17 227
18 233
19 176
20 277
21 173
22 26
23 117
24 37
25 513
26 136
27 376
28 330
29 194
30 23
31 60
32 193
33 92
34 160
35 546
36 205
37 266
38 511
39 133
40 94
41 189
42 548
43 614
44 262
45 258
46 194
47 74
48 50
49 331
50 77

<precedence relations>
1,6
1,7
1,8
1,9
2,23
2,37
3,35
4,6
4,8
4,13
5,6
6,12
7,10
7,13
8,10
8,11
8,14
9,10
9,14
10,15
10,16
10,17
11,15
11,16
11,17
12,15
13,15
13,20
13,21
14,15
14,16
14,18
14,19
14,20
15,27
15,31
16,32
16,43
17,18
17,19
17,20
17,21
18,22
19,22
19,23
19,25
20,23
20,24
21,22
21,23
21,24
21,25
22,26
22,27
22,29
23,27
23,28
23,45
24,39
24,50
25,29
25,30
26,32
27,33
27,48
28,33
28,34
28,36
29,44
30,31
30,35
31,39
31,43
32,37
32,41
33,40
33,42
34,41
35,40
35,45
36,38
37,40
37,45
38,41
38,43
38,44
39,40
39,42
39,44
39,45
41,46
41,47
41,50
42,47
43,50
44,47
44,48
44,49
45,46
45,48

<end>
